param set_len = 20;
param target := 11048861;
param values := [1] 1182580 [2] 729010 [3] 582720 [4] 206172 [5] 95557 [6] 1261750 [7] 1518630 [8] 979042 [9] 1599788 [10] 1555703 [11] 1390087 [12] 311871 [13] 1885727 [14] 1958246 [15] 512946 [16] 2042225 [17] 172822 [18] 1723041 [19] 415540 [20] 1714076 ;
